Solver command line: ['C:\\Program Files\\IBM\\ILOG\\CPLEX_Studio2211\\cplex\\bin\\x64_win64\\cplex.exe']


Welcome to IBM(R) ILOG(R) CPLEX(R) Interactive Optimizer 22.1.1.0
  with Simplex, Mixed Integer & Barrier Optimizers
5725-A06 5725-A29 5724-Y48 5724-Y49 5724-Y54 5724-Y55 5655-Y21
Copyright IBM Corp. 1988, 2022.  All Rights Reserved.

Type 'help' for a list of available commands.
Type 'help' followed by a command name for more
information on commands.

CPLEX> Logfile 'cplex.log' closed.
Logfile 'C:\Users\wangy\Documents\GitHub\re_optimization\result_site_specific\tmpe8tk37jb.cplex.log' open.
CPLEX> Problem 'C:\Users\wangy\Documents\GitHub\re_optimization\result_site_specific\tmpnmbf_gvd.pyomo.lp' read.
Read time = 0.30 sec. (9.13 ticks)
CPLEX> Problem name         : C:\Users\wangy\Documents\GitHub\re_optimization\result_site_specific\tmpnmbf_gvd.pyomo.lp
Objective sense      : Minimize
Variables            :   65769  [Nneg: 35068,  Free: 8792,  Binary: 9,
                                 Other: 21900]
Objective nonzeros   :      17
Linear constraints   :   87665  [Less: 46741,  Greater: 5,  Equal: 40919]
  Nonzeros           :  225076
  RHS nonzeros       :    3529

Variables            : Min LB: 0.000000         Max UB: 1.000000       
Objective nonzeros   : Min   : 1.000000         Max   : 1.000000       
Linear constraints   :
  Nonzeros           : Min   : 0.001932475      Max   : 100000.0       
  RHS nonzeros       : Min   : 0.02600000       Max   : 100000.0       
CPLEX> Version identifier: 22.1.1.0 | 2022-11-27 | 9160aff4d
Tried aggregator 3 times.
MIP Presolve eliminated 53624 rows and 33182 columns.
Aggregator did 10474 substitutions.
Reduced MIP has 23567 rows, 22113 columns, and 70559 nonzeros.
Reduced MIP has 5 binaries, 0 generals, 0 SOSs, and 0 indicators.
Presolve time = 0.19 sec. (226.24 ticks)
Found incumbent of value 289652.387173 after 0.28 sec. (320.33 ticks)
Probing time = 0.00 sec. (1.23 ticks)
Tried aggregator 1 time.
Detecting symmetries...
Reduced MIP has 23567 rows, 22113 columns, and 70559 nonzeros.
Reduced MIP has 5 binaries, 0 generals, 0 SOSs, and 0 indicators.
Presolve time = 0.05 sec. (45.62 ticks)
Probing time = 0.02 sec. (1.14 ticks)
MIP emphasis: balance optimality and feasibility.
MIP search method: dynamic search.
Parallel mode: deterministic, using up to 16 threads.
Root relaxation solution time = 1.19 sec. (880.95 ticks)

        Nodes                                         Cuts/
   Node  Left     Objective  IInf  Best Integer    Best Bound    ItCnt     Gap

*     0+    0                       289652.3872    -9984.3700           103.45%
      0     0     4407.2249     1   289652.3872     4407.2249       69   98.48%
*     0+    0                         6011.9175     4407.2249            26.69%
*     0+    0                         4960.4611     4407.2249            11.15%
      0     0        cutoff           4960.4611                    636    0.00%
Elapsed time = 1.84 sec. (1717.70 ticks, tree = 0.01 MB, solutions = 3)

Root node processing (before b&c):
  Real time             =    1.86 sec. (1720.86 ticks)
Parallel b&c, 16 threads:
  Real time             =    0.00 sec. (0.00 ticks)
  Sync time (average)   =    0.00 sec.
  Wait time (average)   =    0.00 sec.
                          ------------
Total (root+branch&cut) =    1.86 sec. (1720.86 ticks)

Solution pool: 3 solutions saved.

MIP - Integer optimal solution:  Objective =  4.9604610525e+03
Solution time =    1.86 sec.  Iterations = 636  Nodes = 0
Deterministic time = 1721.05 ticks  (925.79 ticks/sec)

CPLEX> Incumbent solution written to file 'C:\Users\wangy\Documents\GitHub\re_optimization\result_site_specific\tmp4wqcns3y.cplex.sol'.
CPLEX> 
